p cnf 384 3168
-1 -121 0
-1 -122 0
121 -121 0
122 -122 0
-21 -133 0
-21 -134 0
133 -133 0
134 -134 0
-41 -145 0
-41 -146 0
145 -145 0
146 -146 0
-61 -157 0
-61 -158 0
157 -157 0
158 -158 0
-81 -169 0
-81 -170 0
169 -169 0
170 -170 0
-101 -181 0
-101 -182 0
181 -181 0
182 -182 0
2 -121 0
2 -122 0
121 -121 0
122 -122 0
22 -133 0
22 -134 0
133 -133 0
134 -134 0
42 -145 0
42 -146 0
145 -145 0
146 -146 0
62 -157 0
62 -158 0
157 -157 0
158 -158 0
82 -169 0
82 -170 0
169 -169 0
170 -170 0
102 -181 0
102 -182 0
181 -181 0
182 -182 0
-3 -121 0
-3 -122 0
121 -121 0
122 -122 0
-23 -133 0
-23 -134 0
133 -133 0
134 -134 0
-43 -145 0
-43 -146 0
145 -145 0
146 -146 0
-63 -157 0
-63 -158 0
157 -157 0
158 -158 0
-83 -169 0
-83 -170 0
169 -169 0
170 -170 0
-103 -181 0
-103 -182 0
181 -181 0
182 -182 0
4 -121 0
4 -122 0
121 -121 0
122 -122 0
24 -133 0
24 -134 0
133 -133 0
134 -134 0
44 -145 0
44 -146 0
145 -145 0
146 -146 0
64 -157 0
64 -158 0
157 -157 0
158 -158 0
84 -169 0
84 -170 0
169 -169 0
170 -170 0
104 -181 0
104 -182 0
181 -181 0
182 -182 0
5 -121 0
5 -122 0
121 -121 0
122 -122 0
25 -133 0
25 -134 0
133 -133 0
134 -134 0
45 -145 0
45 -146 0
145 -145 0
146 -146 0
65 -157 0
65 -158 0
157 -157 0
158 -158 0
85 -169 0
85 -170 0
169 -169 0
170 -170 0
105 -181 0
105 -182 0
181 -181 0
182 -182 0
6 -121 0
6 -122 0
121 -121 0
122 -122 0
26 -133 0
26 -134 0
133 -133 0
134 -134 0
46 -145 0
46 -146 0
145 -145 0
146 -146 0
66 -157 0
66 -158 0
157 -157 0
158 -158 0
86 -169 0
86 -170 0
169 -169 0
170 -170 0
106 -181 0
106 -182 0
181 -181 0
182 -182 0
7 -121 0
7 -122 0
121 -121 0
122 -122 0
27 -133 0
27 -134 0
133 -133 0
134 -134 0
47 -145 0
47 -146 0
145 -145 0
146 -146 0
67 -157 0
67 -158 0
157 -157 0
158 -158 0
87 -169 0
87 -170 0
169 -169 0
170 -170 0
107 -181 0
107 -182 0
181 -181 0
182 -182 0
8 -121 0
8 -122 0
121 -121 0
122 -122 0
28 -133 0
28 -134 0
133 -133 0
134 -134 0
48 -145 0
48 -146 0
145 -145 0
146 -146 0
68 -157 0
68 -158 0
157 -157 0
158 -158 0
88 -169 0
88 -170 0
169 -169 0
170 -170 0
108 -181 0
108 -182 0
181 -181 0
182 -182 0
9 -121 0
9 -122 0
121 -121 0
122 -122 0
29 -133 0
29 -134 0
133 -133 0
134 -134 0
49 -145 0
49 -146 0
145 -145 0
146 -146 0
69 -157 0
69 -158 0
157 -157 0
158 -158 0
89 -169 0
89 -170 0
169 -169 0
170 -170 0
109 -181 0
109 -182 0
181 -181 0
182 -182 0
10 -121 0
10 -122 0
121 -121 0
122 -122 0
30 -133 0
30 -134 0
133 -133 0
134 -134 0
50 -145 0
50 -146 0
145 -145 0
146 -146 0
70 -157 0
70 -158 0
157 -157 0
158 -158 0
90 -169 0
90 -170 0
169 -169 0
170 -170 0
110 -181 0
110 -182 0
181 -181 0
182 -182 0
11 -121 0
11 -122 0
121 -121 0
122 -122 0
31 -133 0
31 -134 0
133 -133 0
134 -134 0
51 -145 0
51 -146 0
145 -145 0
146 -146 0
71 -157 0
71 -158 0
157 -157 0
158 -158 0
91 -169 0
91 -170 0
169 -169 0
170 -170 0
111 -181 0
111 -182 0
181 -181 0
182 -182 0
12 -193 -121 0
-12 193 -121 0
12 193 -122 0
-12 -193 -122 0
32 -193 -133 0
-32 193 -133 0
32 193 -134 0
-32 -193 -134 0
52 -193 -145 0
-52 193 -145 0
52 193 -146 0
-52 -193 -146 0
72 -193 -157 0
-72 193 -157 0
72 193 -158 0
-72 -193 -158 0
92 -193 -169 0
-92 193 -169 0
92 193 -170 0
-92 -193 -170 0
112 -193 -181 0
-112 193 -181 0
112 193 -182 0
-112 -193 -182 0
13 -121 0
13 -122 0
121 -121 0
122 -122 0
33 -133 0
33 -134 0
133 -133 0
134 -134 0
53 -145 0
53 -146 0
145 -145 0
146 -146 0
73 -157 0
73 -158 0
157 -157 0
158 -158 0
93 -169 0
93 -170 0
169 -169 0
170 -170 0
113 -181 0
113 -182 0
181 -181 0
182 -182 0
14 -121 0
14 -122 0
121 -121 0
122 -122 0
34 -133 0
34 -134 0
133 -133 0
134 -134 0
54 -145 0
54 -146 0
145 -145 0
146 -146 0
74 -157 0
74 -158 0
157 -157 0
158 -158 0
94 -169 0
94 -170 0
169 -169 0
170 -170 0
114 -181 0
114 -182 0
181 -181 0
182 -182 0
15 -121 0
15 -122 0
121 -121 0
122 -122 0
35 -133 0
35 -134 0
133 -133 0
134 -134 0
55 -145 0
55 -146 0
145 -145 0
146 -146 0
75 -157 0
75 -158 0
157 -157 0
158 -158 0
95 -169 0
95 -170 0
169 -169 0
170 -170 0
115 -181 0
115 -182 0
181 -181 0
182 -182 0
16 -121 0
16 -122 0
121 -121 0
122 -122 0
36 -133 0
36 -134 0
133 -133 0
134 -134 0
56 -145 0
56 -146 0
145 -145 0
146 -146 0
76 -157 0
76 -158 0
157 -157 0
158 -158 0
96 -169 0
96 -170 0
169 -169 0
170 -170 0
116 -181 0
116 -182 0
181 -181 0
182 -182 0
-17 -121 0
-17 -122 0
121 -121 0
122 -122 0
-37 -133 0
-37 -134 0
133 -133 0
134 -134 0
-57 -145 0
-57 -146 0
145 -145 0
146 -146 0
-77 -157 0
-77 -158 0
157 -157 0
158 -158 0
-97 -169 0
-97 -170 0
169 -169 0
170 -170 0
-117 -181 0
-117 -182 0
181 -181 0
182 -182 0
-18 -121 0
-18 -122 0
121 -121 0
122 -122 0
-38 -133 0
-38 -134 0
133 -133 0
134 -134 0
-58 -145 0
-58 -146 0
145 -145 0
146 -146 0
-78 -157 0
-78 -158 0
157 -157 0
158 -158 0
-98 -169 0
-98 -170 0
169 -169 0
170 -170 0
-118 -181 0
-118 -182 0
181 -181 0
182 -182 0
-19 -121 0
-19 -122 0
121 -121 0
122 -122 0
-39 -133 0
-39 -134 0
133 -133 0
134 -134 0
-59 -145 0
-59 -146 0
145 -145 0
146 -146 0
-79 -157 0
-79 -158 0
157 -157 0
158 -158 0
-99 -169 0
-99 -170 0
169 -169 0
170 -170 0
-119 -181 0
-119 -182 0
181 -181 0
182 -182 0
-20 -121 0
-20 -122 0
121 -121 0
122 -122 0
-40 -133 0
-40 -134 0
133 -133 0
134 -134 0
-60 -145 0
-60 -146 0
145 -145 0
146 -146 0
-80 -157 0
-80 -158 0
157 -157 0
158 -158 0
-100 -169 0
-100 -170 0
169 -169 0
170 -170 0
-120 -181 0
-120 -182 0
181 -181 0
182 -182 0
-313 121 0
313 -121 0
-314 122 0
313 -122 0
-313 -121 0
-314 -122 0
-325 121 313 0
325 -121 0
325 -313 0
-326 122 314 0
326 -122 0
326 -314 0
-325 -133 0
-326 -134 0
-337 133 325 0
337 -133 0
337 -325 0
-338 134 326 0
338 -134 0
338 -326 0
-337 -145 0
-338 -146 0
-349 145 337 0
349 -145 0
349 -337 0
-350 146 338 0
350 -146 0
350 -338 0
-349 -157 0
-350 -158 0
-361 157 349 0
361 -157 0
361 -349 0
-362 158 350 0
362 -158 0
362 -350 0
-361 -169 0
-362 -170 0
-373 169 361 0
373 -169 0
373 -361 0
-374 170 362 0
374 -170 0
374 -362 0
-373 -181 0
-374 -182 0
373 0
374 0
1 -194 -123 0
-1 194 -123 0
1 194 -124 0
-1 -194 -124 0
21 -194 -135 0
-21 194 -135 0
21 194 -136 0
-21 -194 -136 0
41 -194 -147 0
-41 194 -147 0
41 194 -148 0
-41 -194 -148 0
61 -194 -159 0
-61 194 -159 0
61 194 -160 0
-61 -194 -160 0
81 -194 -171 0
-81 194 -171 0
81 194 -172 0
-81 -194 -172 0
101 -194 -183 0
-101 194 -183 0
101 194 -184 0
-101 -194 -184 0
2 -195 -123 0
-2 195 -123 0
2 195 -124 0
-2 -195 -124 0
22 -195 -135 0
-22 195 -135 0
22 195 -136 0
-22 -195 -136 0
42 -195 -147 0
-42 195 -147 0
42 195 -148 0
-42 -195 -148 0
62 -195 -159 0
-62 195 -159 0
62 195 -160 0
-62 -195 -160 0
82 -195 -171 0
-82 195 -171 0
82 195 -172 0
-82 -195 -172 0
102 -195 -183 0
-102 195 -183 0
102 195 -184 0
-102 -195 -184 0
3 -196 -123 0
-3 196 -123 0
3 196 -124 0
-3 -196 -124 0
23 -196 -135 0
-23 196 -135 0
23 196 -136 0
-23 -196 -136 0
43 -196 -147 0
-43 196 -147 0
43 196 -148 0
-43 -196 -148 0
63 -196 -159 0
-63 196 -159 0
63 196 -160 0
-63 -196 -160 0
83 -196 -171 0
-83 196 -171 0
83 196 -172 0
-83 -196 -172 0
103 -196 -183 0
-103 196 -183 0
103 196 -184 0
-103 -196 -184 0
4 -197 -123 0
-4 197 -123 0
4 197 -124 0
-4 -197 -124 0
24 -197 -135 0
-24 197 -135 0
24 197 -136 0
-24 -197 -136 0
44 -197 -147 0
-44 197 -147 0
44 197 -148 0
-44 -197 -148 0
64 -197 -159 0
-64 197 -159 0
64 197 -160 0
-64 -197 -160 0
84 -197 -171 0
-84 197 -171 0
84 197 -172 0
-84 -197 -172 0
104 -197 -183 0
-104 197 -183 0
104 197 -184 0
-104 -197 -184 0
5 -123 0
5 -124 0
123 -123 0
124 -124 0
25 -135 0
25 -136 0
135 -135 0
136 -136 0
45 -147 0
45 -148 0
147 -147 0
148 -148 0
65 -159 0
65 -160 0
159 -159 0
160 -160 0
85 -171 0
85 -172 0
171 -171 0
172 -172 0
105 -183 0
105 -184 0
183 -183 0
184 -184 0
6 -123 0
6 -124 0
123 -123 0
124 -124 0
26 -135 0
26 -136 0
135 -135 0
136 -136 0
46 -147 0
46 -148 0
147 -147 0
148 -148 0
66 -159 0
66 -160 0
159 -159 0
160 -160 0
86 -171 0
86 -172 0
171 -171 0
172 -172 0
106 -183 0
106 -184 0
183 -183 0
184 -184 0
7 -123 0
7 -124 0
123 -123 0
124 -124 0
27 -135 0
27 -136 0
135 -135 0
136 -136 0
47 -147 0
47 -148 0
147 -147 0
148 -148 0
67 -159 0
67 -160 0
159 -159 0
160 -160 0
87 -171 0
87 -172 0
171 -171 0
172 -172 0
107 -183 0
107 -184 0
183 -183 0
184 -184 0
8 -123 0
8 -124 0
123 -123 0
124 -124 0
28 -135 0
28 -136 0
135 -135 0
136 -136 0
48 -147 0
48 -148 0
147 -147 0
148 -148 0
68 -159 0
68 -160 0
159 -159 0
160 -160 0
88 -171 0
88 -172 0
171 -171 0
172 -172 0
108 -183 0
108 -184 0
183 -183 0
184 -184 0
9 -123 0
9 -124 0
123 -123 0
124 -124 0
29 -135 0
29 -136 0
135 -135 0
136 -136 0
49 -147 0
49 -148 0
147 -147 0
148 -148 0
69 -159 0
69 -160 0
159 -159 0
160 -160 0
89 -171 0
89 -172 0
171 -171 0
172 -172 0
109 -183 0
109 -184 0
183 -183 0
184 -184 0
10 -123 0
10 -124 0
123 -123 0
124 -124 0
30 -135 0
30 -136 0
135 -135 0
136 -136 0
50 -147 0
50 -148 0
147 -147 0
148 -148 0
70 -159 0
70 -160 0
159 -159 0
160 -160 0
90 -171 0
90 -172 0
171 -171 0
172 -172 0
110 -183 0
110 -184 0
183 -183 0
184 -184 0
11 -123 0
11 -124 0
123 -123 0
124 -124 0
31 -135 0
31 -136 0
135 -135 0
136 -136 0
51 -147 0
51 -148 0
147 -147 0
148 -148 0
71 -159 0
71 -160 0
159 -159 0
160 -160 0
91 -171 0
91 -172 0
171 -171 0
172 -172 0
111 -183 0
111 -184 0
183 -183 0
184 -184 0
12 -198 -123 0
-12 198 -123 0
12 198 -124 0
-12 -198 -124 0
32 -198 -135 0
-32 198 -135 0
32 198 -136 0
-32 -198 -136 0
52 -198 -147 0
-52 198 -147 0
52 198 -148 0
-52 -198 -148 0
72 -198 -159 0
-72 198 -159 0
72 198 -160 0
-72 -198 -160 0
92 -198 -171 0
-92 198 -171 0
92 198 -172 0
-92 -198 -172 0
112 -198 -183 0
-112 198 -183 0
112 198 -184 0
-112 -198 -184 0
13 -199 -123 0
-13 199 -123 0
13 199 -124 0
-13 -199 -124 0
33 -199 -135 0
-33 199 -135 0
33 199 -136 0
-33 -199 -136 0
53 -199 -147 0
-53 199 -147 0
53 199 -148 0
-53 -199 -148 0
73 -199 -159 0
-73 199 -159 0
73 199 -160 0
-73 -199 -160 0
93 -199 -171 0
-93 199 -171 0
93 199 -172 0
-93 -199 -172 0
113 -199 -183 0
-113 199 -183 0
113 199 -184 0
-113 -199 -184 0
14 -200 -123 0
-14 200 -123 0
14 200 -124 0
-14 -200 -124 0
34 -200 -135 0
-34 200 -135 0
34 200 -136 0
-34 -200 -136 0
54 -200 -147 0
-54 200 -147 0
54 200 -148 0
-54 -200 -148 0
74 -200 -159 0
-74 200 -159 0
74 200 -160 0
-74 -200 -160 0
94 -200 -171 0
-94 200 -171 0
94 200 -172 0
-94 -200 -172 0
114 -200 -183 0
-114 200 -183 0
114 200 -184 0
-114 -200 -184 0
15 -201 -123 0
-15 201 -123 0
15 201 -124 0
-15 -201 -124 0
35 -201 -135 0
-35 201 -135 0
35 201 -136 0
-35 -201 -136 0
55 -201 -147 0
-55 201 -147 0
55 201 -148 0
-55 -201 -148 0
75 -201 -159 0
-75 201 -159 0
75 201 -160 0
-75 -201 -160 0
95 -201 -171 0
-95 201 -171 0
95 201 -172 0
-95 -201 -172 0
115 -201 -183 0
-115 201 -183 0
115 201 -184 0
-115 -201 -184 0
16 -123 0
16 -124 0
123 -123 0
124 -124 0
36 -135 0
36 -136 0
135 -135 0
136 -136 0
56 -147 0
56 -148 0
147 -147 0
148 -148 0
76 -159 0
76 -160 0
159 -159 0
160 -160 0
96 -171 0
96 -172 0
171 -171 0
172 -172 0
116 -183 0
116 -184 0
183 -183 0
184 -184 0
-17 -123 0
-17 -124 0
123 -123 0
124 -124 0
-37 -135 0
-37 -136 0
135 -135 0
136 -136 0
-57 -147 0
-57 -148 0
147 -147 0
148 -148 0
-77 -159 0
-77 -160 0
159 -159 0
160 -160 0
-97 -171 0
-97 -172 0
171 -171 0
172 -172 0
-117 -183 0
-117 -184 0
183 -183 0
184 -184 0
-18 -123 0
-18 -124 0
123 -123 0
124 -124 0
-38 -135 0
-38 -136 0
135 -135 0
136 -136 0
-58 -147 0
-58 -148 0
147 -147 0
148 -148 0
-78 -159 0
-78 -160 0
159 -159 0
160 -160 0
-98 -171 0
-98 -172 0
171 -171 0
172 -172 0
-118 -183 0
-118 -184 0
183 -183 0
184 -184 0
-19 -123 0
-19 -124 0
123 -123 0
124 -124 0
-39 -135 0
-39 -136 0
135 -135 0
136 -136 0
-59 -147 0
-59 -148 0
147 -147 0
148 -148 0
-79 -159 0
-79 -160 0
159 -159 0
160 -160 0
-99 -171 0
-99 -172 0
171 -171 0
172 -172 0
-119 -183 0
-119 -184 0
183 -183 0
184 -184 0
-20 -123 0
-20 -124 0
123 -123 0
124 -124 0
-40 -135 0
-40 -136 0
135 -135 0
136 -136 0
-60 -147 0
-60 -148 0
147 -147 0
148 -148 0
-80 -159 0
-80 -160 0
159 -159 0
160 -160 0
-100 -171 0
-100 -172 0
171 -171 0
172 -172 0
-120 -183 0
-120 -184 0
183 -183 0
184 -184 0
-315 123 0
315 -123 0
-316 124 0
315 -124 0
-315 -123 0
-316 -124 0
-327 123 315 0
327 -123 0
327 -315 0
-328 124 316 0
328 -124 0
328 -316 0
-327 -135 0
-328 -136 0
-339 135 327 0
339 -135 0
339 -327 0
-340 136 328 0
340 -136 0
340 -328 0
-339 -147 0
-340 -148 0
-351 147 339 0
351 -147 0
351 -339 0
-352 148 340 0
352 -148 0
352 -340 0
-351 -159 0
-352 -160 0
-363 159 351 0
363 -159 0
363 -351 0
-364 160 352 0
364 -160 0
364 -352 0
-363 -171 0
-364 -172 0
-375 171 363 0
375 -171 0
375 -363 0
-376 172 364 0
376 -172 0
376 -364 0
-375 -183 0
-376 -184 0
375 0
376 0
1 -125 0
1 -126 0
125 -125 0
126 -126 0
21 -137 0
21 -138 0
137 -137 0
138 -138 0
41 -149 0
41 -150 0
149 -149 0
150 -150 0
61 -161 0
61 -162 0
161 -161 0
162 -162 0
81 -173 0
81 -174 0
173 -173 0
174 -174 0
101 -185 0
101 -186 0
185 -185 0
186 -186 0
2 -125 0
2 -126 0
125 -125 0
126 -126 0
22 -137 0
22 -138 0
137 -137 0
138 -138 0
42 -149 0
42 -150 0
149 -149 0
150 -150 0
62 -161 0
62 -162 0
161 -161 0
162 -162 0
82 -173 0
82 -174 0
173 -173 0
174 -174 0
102 -185 0
102 -186 0
185 -185 0
186 -186 0
-3 -125 0
-3 -126 0
125 -125 0
126 -126 0
-23 -137 0
-23 -138 0
137 -137 0
138 -138 0
-43 -149 0
-43 -150 0
149 -149 0
150 -150 0
-63 -161 0
-63 -162 0
161 -161 0
162 -162 0
-83 -173 0
-83 -174 0
173 -173 0
174 -174 0
-103 -185 0
-103 -186 0
185 -185 0
186 -186 0
4 -125 0
4 -126 0
125 -125 0
126 -126 0
24 -137 0
24 -138 0
137 -137 0
138 -138 0
44 -149 0
44 -150 0
149 -149 0
150 -150 0
64 -161 0
64 -162 0
161 -161 0
162 -162 0
84 -173 0
84 -174 0
173 -173 0
174 -174 0
104 -185 0
104 -186 0
185 -185 0
186 -186 0
-5 -125 0
-5 -126 0
125 -125 0
126 -126 0
-25 -137 0
-25 -138 0
137 -137 0
138 -138 0
-45 -149 0
-45 -150 0
149 -149 0
150 -150 0
-65 -161 0
-65 -162 0
161 -161 0
162 -162 0
-85 -173 0
-85 -174 0
173 -173 0
174 -174 0
-105 -185 0
-105 -186 0
185 -185 0
186 -186 0
6 -125 0
6 -126 0
125 -125 0
126 -126 0
26 -137 0
26 -138 0
137 -137 0
138 -138 0
46 -149 0
46 -150 0
149 -149 0
150 -150 0
66 -161 0
66 -162 0
161 -161 0
162 -162 0
86 -173 0
86 -174 0
173 -173 0
174 -174 0
106 -185 0
106 -186 0
185 -185 0
186 -186 0
7 -125 0
7 -126 0
125 -125 0
126 -126 0
27 -137 0
27 -138 0
137 -137 0
138 -138 0
47 -149 0
47 -150 0
149 -149 0
150 -150 0
67 -161 0
67 -162 0
161 -161 0
162 -162 0
87 -173 0
87 -174 0
173 -173 0
174 -174 0
107 -185 0
107 -186 0
185 -185 0
186 -186 0
8 -202 -125 0
-8 202 -125 0
8 202 -126 0
-8 -202 -126 0
28 -202 -137 0
-28 202 -137 0
28 202 -138 0
-28 -202 -138 0
48 -202 -149 0
-48 202 -149 0
48 202 -150 0
-48 -202 -150 0
68 -202 -161 0
-68 202 -161 0
68 202 -162 0
-68 -202 -162 0
88 -202 -173 0
-88 202 -173 0
88 202 -174 0
-88 -202 -174 0
108 -202 -185 0
-108 202 -185 0
108 202 -186 0
-108 -202 -186 0
9 -125 0
9 -126 0
125 -125 0
126 -126 0
29 -137 0
29 -138 0
137 -137 0
138 -138 0
49 -149 0
49 -150 0
149 -149 0
150 -150 0
69 -161 0
69 -162 0
161 -161 0
162 -162 0
89 -173 0
89 -174 0
173 -173 0
174 -174 0
109 -185 0
109 -186 0
185 -185 0
186 -186 0
10 -125 0
10 -126 0
125 -125 0
126 -126 0
30 -137 0
30 -138 0
137 -137 0
138 -138 0
50 -149 0
50 -150 0
149 -149 0
150 -150 0
70 -161 0
70 -162 0
161 -161 0
162 -162 0
90 -173 0
90 -174 0
173 -173 0
174 -174 0
110 -185 0
110 -186 0
185 -185 0
186 -186 0
11 -125 0
11 -126 0
125 -125 0
126 -126 0
31 -137 0
31 -138 0
137 -137 0
138 -138 0
51 -149 0
51 -150 0
149 -149 0
150 -150 0
71 -161 0
71 -162 0
161 -161 0
162 -162 0
91 -173 0
91 -174 0
173 -173 0
174 -174 0
111 -185 0
111 -186 0
185 -185 0
186 -186 0
12 -125 0
12 -126 0
125 -125 0
126 -126 0
32 -137 0
32 -138 0
137 -137 0
138 -138 0
52 -149 0
52 -150 0
149 -149 0
150 -150 0
72 -161 0
72 -162 0
161 -161 0
162 -162 0
92 -173 0
92 -174 0
173 -173 0
174 -174 0
112 -185 0
112 -186 0
185 -185 0
186 -186 0
-13 -125 0
-13 -126 0
125 -125 0
126 -126 0
-33 -137 0
-33 -138 0
137 -137 0
138 -138 0
-53 -149 0
-53 -150 0
149 -149 0
150 -150 0
-73 -161 0
-73 -162 0
161 -161 0
162 -162 0
-93 -173 0
-93 -174 0
173 -173 0
174 -174 0
-113 -185 0
-113 -186 0
185 -185 0
186 -186 0
-14 -125 0
-14 -126 0
125 -125 0
126 -126 0
-34 -137 0
-34 -138 0
137 -137 0
138 -138 0
-54 -149 0
-54 -150 0
149 -149 0
150 -150 0
-74 -161 0
-74 -162 0
161 -161 0
162 -162 0
-94 -173 0
-94 -174 0
173 -173 0
174 -174 0
-114 -185 0
-114 -186 0
185 -185 0
186 -186 0
-15 -125 0
-15 -126 0
125 -125 0
126 -126 0
-35 -137 0
-35 -138 0
137 -137 0
138 -138 0
-55 -149 0
-55 -150 0
149 -149 0
150 -150 0
-75 -161 0
-75 -162 0
161 -161 0
162 -162 0
-95 -173 0
-95 -174 0
173 -173 0
174 -174 0
-115 -185 0
-115 -186 0
185 -185 0
186 -186 0
16 -125 0
16 -126 0
125 -125 0
126 -126 0
36 -137 0
36 -138 0
137 -137 0
138 -138 0
56 -149 0
56 -150 0
149 -149 0
150 -150 0
76 -161 0
76 -162 0
161 -161 0
162 -162 0
96 -173 0
96 -174 0
173 -173 0
174 -174 0
116 -185 0
116 -186 0
185 -185 0
186 -186 0
-17 -125 0
-17 -126 0
125 -125 0
126 -126 0
-37 -137 0
-37 -138 0
137 -137 0
138 -138 0
-57 -149 0
-57 -150 0
149 -149 0
150 -150 0
-77 -161 0
-77 -162 0
161 -161 0
162 -162 0
-97 -173 0
-97 -174 0
173 -173 0
174 -174 0
-117 -185 0
-117 -186 0
185 -185 0
186 -186 0
-18 -125 0
-18 -126 0
125 -125 0
126 -126 0
-38 -137 0
-38 -138 0
137 -137 0
138 -138 0
-58 -149 0
-58 -150 0
149 -149 0
150 -150 0
-78 -161 0
-78 -162 0
161 -161 0
162 -162 0
-98 -173 0
-98 -174 0
173 -173 0
174 -174 0
-118 -185 0
-118 -186 0
185 -185 0
186 -186 0
-19 -125 0
-19 -126 0
125 -125 0
126 -126 0
-39 -137 0
-39 -138 0
137 -137 0
138 -138 0
-59 -149 0
-59 -150 0
149 -149 0
150 -150 0
-79 -161 0
-79 -162 0
161 -161 0
162 -162 0
-99 -173 0
-99 -174 0
173 -173 0
174 -174 0
-119 -185 0
-119 -186 0
185 -185 0
186 -186 0
-20 -125 0
-20 -126 0
125 -125 0
126 -126 0
-40 -137 0
-40 -138 0
137 -137 0
138 -138 0
-60 -149 0
-60 -150 0
149 -149 0
150 -150 0
-80 -161 0
-80 -162 0
161 -161 0
162 -162 0
-100 -173 0
-100 -174 0
173 -173 0
174 -174 0
-120 -185 0
-120 -186 0
185 -185 0
186 -186 0
-317 125 0
317 -125 0
-318 126 0
317 -126 0
-317 -125 0
-318 -126 0
-329 125 317 0
329 -125 0
329 -317 0
-330 126 318 0
330 -126 0
330 -318 0
-329 -137 0
-330 -138 0
-341 137 329 0
341 -137 0
341 -329 0
-342 138 330 0
342 -138 0
342 -330 0
-341 -149 0
-342 -150 0
-353 149 341 0
353 -149 0
353 -341 0
-354 150 342 0
354 -150 0
354 -342 0
-353 -161 0
-354 -162 0
-365 161 353 0
365 -161 0
365 -353 0
-366 162 354 0
366 -162 0
366 -354 0
-365 -173 0
-366 -174 0
-377 173 365 0
377 -173 0
377 -365 0
-378 174 366 0
378 -174 0
378 -366 0
-377 -185 0
-378 -186 0
377 0
378 0
1 -127 0
1 -128 0
127 -127 0
128 -128 0
21 -139 0
21 -140 0
139 -139 0
140 -140 0
41 -151 0
41 -152 0
151 -151 0
152 -152 0
61 -163 0
61 -164 0
163 -163 0
164 -164 0
81 -175 0
81 -176 0
175 -175 0
176 -176 0
101 -187 0
101 -188 0
187 -187 0
188 -188 0
2 -127 0
2 -128 0
127 -127 0
128 -128 0
22 -139 0
22 -140 0
139 -139 0
140 -140 0
42 -151 0
42 -152 0
151 -151 0
152 -152 0
62 -163 0
62 -164 0
163 -163 0
164 -164 0
82 -175 0
82 -176 0
175 -175 0
176 -176 0
102 -187 0
102 -188 0
187 -187 0
188 -188 0
-3 -127 0
-3 -128 0
127 -127 0
128 -128 0
-23 -139 0
-23 -140 0
139 -139 0
140 -140 0
-43 -151 0
-43 -152 0
151 -151 0
152 -152 0
-63 -163 0
-63 -164 0
163 -163 0
164 -164 0
-83 -175 0
-83 -176 0
175 -175 0
176 -176 0
-103 -187 0
-103 -188 0
187 -187 0
188 -188 0
4 -127 0
4 -128 0
127 -127 0
128 -128 0
24 -139 0
24 -140 0
139 -139 0
140 -140 0
44 -151 0
44 -152 0
151 -151 0
152 -152 0
64 -163 0
64 -164 0
163 -163 0
164 -164 0
84 -175 0
84 -176 0
175 -175 0
176 -176 0
104 -187 0
104 -188 0
187 -187 0
188 -188 0
-5 -127 0
-5 -128 0
127 -127 0
128 -128 0
-25 -139 0
-25 -140 0
139 -139 0
140 -140 0
-45 -151 0
-45 -152 0
151 -151 0
152 -152 0
-65 -163 0
-65 -164 0
163 -163 0
164 -164 0
-85 -175 0
-85 -176 0
175 -175 0
176 -176 0
-105 -187 0
-105 -188 0
187 -187 0
188 -188 0
6 -127 0
6 -128 0
127 -127 0
128 -128 0
26 -139 0
26 -140 0
139 -139 0
140 -140 0
46 -151 0
46 -152 0
151 -151 0
152 -152 0
66 -163 0
66 -164 0
163 -163 0
164 -164 0
86 -175 0
86 -176 0
175 -175 0
176 -176 0
106 -187 0
106 -188 0
187 -187 0
188 -188 0
7 -127 0
7 -128 0
127 -127 0
128 -128 0
27 -139 0
27 -140 0
139 -139 0
140 -140 0
47 -151 0
47 -152 0
151 -151 0
152 -152 0
67 -163 0
67 -164 0
163 -163 0
164 -164 0
87 -175 0
87 -176 0
175 -175 0
176 -176 0
107 -187 0
107 -188 0
187 -187 0
188 -188 0
8 -127 0
8 -128 0
127 -127 0
128 -128 0
28 -139 0
28 -140 0
139 -139 0
140 -140 0
48 -151 0
48 -152 0
151 -151 0
152 -152 0
68 -163 0
68 -164 0
163 -163 0
164 -164 0
88 -175 0
88 -176 0
175 -175 0
176 -176 0
108 -187 0
108 -188 0
187 -187 0
188 -188 0
9 -127 0
9 -128 0
127 -127 0
128 -128 0
29 -139 0
29 -140 0
139 -139 0
140 -140 0
49 -151 0
49 -152 0
151 -151 0
152 -152 0
69 -163 0
69 -164 0
163 -163 0
164 -164 0
89 -175 0
89 -176 0
175 -175 0
176 -176 0
109 -187 0
109 -188 0
187 -187 0
188 -188 0
-10 -127 0
-10 -128 0
127 -127 0
128 -128 0
-30 -139 0
-30 -140 0
139 -139 0
140 -140 0
-50 -151 0
-50 -152 0
151 -151 0
152 -152 0
-70 -163 0
-70 -164 0
163 -163 0
164 -164 0
-90 -175 0
-90 -176 0
175 -175 0
176 -176 0
-110 -187 0
-110 -188 0
187 -187 0
188 -188 0
11 -127 0
11 -128 0
127 -127 0
128 -128 0
31 -139 0
31 -140 0
139 -139 0
140 -140 0
51 -151 0
51 -152 0
151 -151 0
152 -152 0
71 -163 0
71 -164 0
163 -163 0
164 -164 0
91 -175 0
91 -176 0
175 -175 0
176 -176 0
111 -187 0
111 -188 0
187 -187 0
188 -188 0
12 -127 0
12 -128 0
127 -127 0
128 -128 0
32 -139 0
32 -140 0
139 -139 0
140 -140 0
52 -151 0
52 -152 0
151 -151 0
152 -152 0
72 -163 0
72 -164 0
163 -163 0
164 -164 0
92 -175 0
92 -176 0
175 -175 0
176 -176 0
112 -187 0
112 -188 0
187 -187 0
188 -188 0
-13 -127 0
-13 -128 0
127 -127 0
128 -128 0
-33 -139 0
-33 -140 0
139 -139 0
140 -140 0
-53 -151 0
-53 -152 0
151 -151 0
152 -152 0
-73 -163 0
-73 -164 0
163 -163 0
164 -164 0
-93 -175 0
-93 -176 0
175 -175 0
176 -176 0
-113 -187 0
-113 -188 0
187 -187 0
188 -188 0
-14 -127 0
-14 -128 0
127 -127 0
128 -128 0
-34 -139 0
-34 -140 0
139 -139 0
140 -140 0
-54 -151 0
-54 -152 0
151 -151 0
152 -152 0
-74 -163 0
-74 -164 0
163 -163 0
164 -164 0
-94 -175 0
-94 -176 0
175 -175 0
176 -176 0
-114 -187 0
-114 -188 0
187 -187 0
188 -188 0
-15 -127 0
-15 -128 0
127 -127 0
128 -128 0
-35 -139 0
-35 -140 0
139 -139 0
140 -140 0
-55 -151 0
-55 -152 0
151 -151 0
152 -152 0
-75 -163 0
-75 -164 0
163 -163 0
164 -164 0
-95 -175 0
-95 -176 0
175 -175 0
176 -176 0
-115 -187 0
-115 -188 0
187 -187 0
188 -188 0
16 -127 0
16 -128 0
127 -127 0
128 -128 0
36 -139 0
36 -140 0
139 -139 0
140 -140 0
56 -151 0
56 -152 0
151 -151 0
152 -152 0
76 -163 0
76 -164 0
163 -163 0
164 -164 0
96 -175 0
96 -176 0
175 -175 0
176 -176 0
116 -187 0
116 -188 0
187 -187 0
188 -188 0
-17 -127 0
-17 -128 0
127 -127 0
128 -128 0
-37 -139 0
-37 -140 0
139 -139 0
140 -140 0
-57 -151 0
-57 -152 0
151 -151 0
152 -152 0
-77 -163 0
-77 -164 0
163 -163 0
164 -164 0
-97 -175 0
-97 -176 0
175 -175 0
176 -176 0
-117 -187 0
-117 -188 0
187 -187 0
188 -188 0
-18 -127 0
-18 -128 0
127 -127 0
128 -128 0
-38 -139 0
-38 -140 0
139 -139 0
140 -140 0
-58 -151 0
-58 -152 0
151 -151 0
152 -152 0
-78 -163 0
-78 -164 0
163 -163 0
164 -164 0
-98 -175 0
-98 -176 0
175 -175 0
176 -176 0
-118 -187 0
-118 -188 0
187 -187 0
188 -188 0
-19 -127 0
-19 -128 0
127 -127 0
128 -128 0
-39 -139 0
-39 -140 0
139 -139 0
140 -140 0
-59 -151 0
-59 -152 0
151 -151 0
152 -152 0
-79 -163 0
-79 -164 0
163 -163 0
164 -164 0
-99 -175 0
-99 -176 0
175 -175 0
176 -176 0
-119 -187 0
-119 -188 0
187 -187 0
188 -188 0
-20 -127 0
-20 -128 0
127 -127 0
128 -128 0
-40 -139 0
-40 -140 0
139 -139 0
140 -140 0
-60 -151 0
-60 -152 0
151 -151 0
152 -152 0
-80 -163 0
-80 -164 0
163 -163 0
164 -164 0
-100 -175 0
-100 -176 0
175 -175 0
176 -176 0
-120 -187 0
-120 -188 0
187 -187 0
188 -188 0
-319 127 0
319 -127 0
-320 128 0
319 -128 0
-319 -127 0
-320 -128 0
-331 127 319 0
331 -127 0
331 -319 0
-332 128 320 0
332 -128 0
332 -320 0
-331 -139 0
-332 -140 0
-343 139 331 0
343 -139 0
343 -331 0
-344 140 332 0
344 -140 0
344 -332 0
-343 -151 0
-344 -152 0
-355 151 343 0
355 -151 0
355 -343 0
-356 152 344 0
356 -152 0
356 -344 0
-355 -163 0
-356 -164 0
-367 163 355 0
367 -163 0
367 -355 0
-368 164 356 0
368 -164 0
368 -356 0
-367 -175 0
-368 -176 0
-379 175 367 0
379 -175 0
379 -367 0
-380 176 368 0
380 -176 0
380 -368 0
-379 -187 0
-380 -188 0
379 0
380 0
1 -129 0
1 -130 0
129 -129 0
130 -130 0
21 -141 0
21 -142 0
141 -141 0
142 -142 0
41 -153 0
41 -154 0
153 -153 0
154 -154 0
61 -165 0
61 -166 0
165 -165 0
166 -166 0
81 -177 0
81 -178 0
177 -177 0
178 -178 0
101 -189 0
101 -190 0
189 -189 0
190 -190 0
2 -129 0
2 -130 0
129 -129 0
130 -130 0
22 -141 0
22 -142 0
141 -141 0
142 -142 0
42 -153 0
42 -154 0
153 -153 0
154 -154 0
62 -165 0
62 -166 0
165 -165 0
166 -166 0
82 -177 0
82 -178 0
177 -177 0
178 -178 0
102 -189 0
102 -190 0
189 -189 0
190 -190 0
3 -203 -129 0
-3 203 -129 0
3 203 -130 0
-3 -203 -130 0
23 -203 -141 0
-23 203 -141 0
23 203 -142 0
-23 -203 -142 0
43 -203 -153 0
-43 203 -153 0
43 203 -154 0
-43 -203 -154 0
63 -203 -165 0
-63 203 -165 0
63 203 -166 0
-63 -203 -166 0
83 -203 -177 0
-83 203 -177 0
83 203 -178 0
-83 -203 -178 0
103 -203 -189 0
-103 203 -189 0
103 203 -190 0
-103 -203 -190 0
4 -129 0
4 -130 0
129 -129 0
130 -130 0
24 -141 0
24 -142 0
141 -141 0
142 -142 0
44 -153 0
44 -154 0
153 -153 0
154 -154 0
64 -165 0
64 -166 0
165 -165 0
166 -166 0
84 -177 0
84 -178 0
177 -177 0
178 -178 0
104 -189 0
104 -190 0
189 -189 0
190 -190 0
5 -204 -129 0
-5 204 -129 0
5 204 -130 0
-5 -204 -130 0
25 -204 -141 0
-25 204 -141 0
25 204 -142 0
-25 -204 -142 0
45 -204 -153 0
-45 204 -153 0
45 204 -154 0
-45 -204 -154 0
65 -204 -165 0
-65 204 -165 0
65 204 -166 0
-65 -204 -166 0
85 -204 -177 0
-85 204 -177 0
85 204 -178 0
-85 -204 -178 0
105 -204 -189 0
-105 204 -189 0
105 204 -190 0
-105 -204 -190 0
6 -205 -129 0
-6 205 -129 0
6 205 -130 0
-6 -205 -130 0
26 -205 -141 0
-26 205 -141 0
26 205 -142 0
-26 -205 -142 0
46 -205 -153 0
-46 205 -153 0
46 205 -154 0
-46 -205 -154 0
66 -205 -165 0
-66 205 -165 0
66 205 -166 0
-66 -205 -166 0
86 -205 -177 0
-86 205 -177 0
86 205 -178 0
-86 -205 -178 0
106 -205 -189 0
-106 205 -189 0
106 205 -190 0
-106 -205 -190 0
7 -129 0
7 -130 0
129 -129 0
130 -130 0
27 -141 0
27 -142 0
141 -141 0
142 -142 0
47 -153 0
47 -154 0
153 -153 0
154 -154 0
67 -165 0
67 -166 0
165 -165 0
166 -166 0
87 -177 0
87 -178 0
177 -177 0
178 -178 0
107 -189 0
107 -190 0
189 -189 0
190 -190 0
8 -206 -129 0
-8 206 -129 0
8 206 -130 0
-8 -206 -130 0
28 -206 -141 0
-28 206 -141 0
28 206 -142 0
-28 -206 -142 0
48 -206 -153 0
-48 206 -153 0
48 206 -154 0
-48 -206 -154 0
68 -206 -165 0
-68 206 -165 0
68 206 -166 0
-68 -206 -166 0
88 -206 -177 0
-88 206 -177 0
88 206 -178 0
-88 -206 -178 0
108 -206 -189 0
-108 206 -189 0
108 206 -190 0
-108 -206 -190 0
9 -129 0
9 -130 0
129 -129 0
130 -130 0
29 -141 0
29 -142 0
141 -141 0
142 -142 0
49 -153 0
49 -154 0
153 -153 0
154 -154 0
69 -165 0
69 -166 0
165 -165 0
166 -166 0
89 -177 0
89 -178 0
177 -177 0
178 -178 0
109 -189 0
109 -190 0
189 -189 0
190 -190 0
10 -129 0
10 -130 0
129 -129 0
130 -130 0
30 -141 0
30 -142 0
141 -141 0
142 -142 0
50 -153 0
50 -154 0
153 -153 0
154 -154 0
70 -165 0
70 -166 0
165 -165 0
166 -166 0
90 -177 0
90 -178 0
177 -177 0
178 -178 0
110 -189 0
110 -190 0
189 -189 0
190 -190 0
11 -129 0
11 -130 0
129 -129 0
130 -130 0
31 -141 0
31 -142 0
141 -141 0
142 -142 0
51 -153 0
51 -154 0
153 -153 0
154 -154 0
71 -165 0
71 -166 0
165 -165 0
166 -166 0
91 -177 0
91 -178 0
177 -177 0
178 -178 0
111 -189 0
111 -190 0
189 -189 0
190 -190 0
12 -129 0
12 -130 0
129 -129 0
130 -130 0
32 -141 0
32 -142 0
141 -141 0
142 -142 0
52 -153 0
52 -154 0
153 -153 0
154 -154 0
72 -165 0
72 -166 0
165 -165 0
166 -166 0
92 -177 0
92 -178 0
177 -177 0
178 -178 0
112 -189 0
112 -190 0
189 -189 0
190 -190 0
-13 -129 0
-13 -130 0
129 -129 0
130 -130 0
-33 -141 0
-33 -142 0
141 -141 0
142 -142 0
-53 -153 0
-53 -154 0
153 -153 0
154 -154 0
-73 -165 0
-73 -166 0
165 -165 0
166 -166 0
-93 -177 0
-93 -178 0
177 -177 0
178 -178 0
-113 -189 0
-113 -190 0
189 -189 0
190 -190 0
-14 -129 0
-14 -130 0
129 -129 0
130 -130 0
-34 -141 0
-34 -142 0
141 -141 0
142 -142 0
-54 -153 0
-54 -154 0
153 -153 0
154 -154 0
-74 -165 0
-74 -166 0
165 -165 0
166 -166 0
-94 -177 0
-94 -178 0
177 -177 0
178 -178 0
-114 -189 0
-114 -190 0
189 -189 0
190 -190 0
-15 -129 0
-15 -130 0
129 -129 0
130 -130 0
-35 -141 0
-35 -142 0
141 -141 0
142 -142 0
-55 -153 0
-55 -154 0
153 -153 0
154 -154 0
-75 -165 0
-75 -166 0
165 -165 0
166 -166 0
-95 -177 0
-95 -178 0
177 -177 0
178 -178 0
-115 -189 0
-115 -190 0
189 -189 0
190 -190 0
16 -129 0
16 -130 0
129 -129 0
130 -130 0
36 -141 0
36 -142 0
141 -141 0
142 -142 0
56 -153 0
56 -154 0
153 -153 0
154 -154 0
76 -165 0
76 -166 0
165 -165 0
166 -166 0
96 -177 0
96 -178 0
177 -177 0
178 -178 0
116 -189 0
116 -190 0
189 -189 0
190 -190 0
17 -207 -129 0
-17 207 -129 0
17 207 -130 0
-17 -207 -130 0
37 -207 -141 0
-37 207 -141 0
37 207 -142 0
-37 -207 -142 0
57 -207 -153 0
-57 207 -153 0
57 207 -154 0
-57 -207 -154 0
77 -207 -165 0
-77 207 -165 0
77 207 -166 0
-77 -207 -166 0
97 -207 -177 0
-97 207 -177 0
97 207 -178 0
-97 -207 -178 0
117 -207 -189 0
-117 207 -189 0
117 207 -190 0
-117 -207 -190 0
-18 -129 0
-18 -130 0
129 -129 0
130 -130 0
-38 -141 0
-38 -142 0
141 -141 0
142 -142 0
-58 -153 0
-58 -154 0
153 -153 0
154 -154 0
-78 -165 0
-78 -166 0
165 -165 0
166 -166 0
-98 -177 0
-98 -178 0
177 -177 0
178 -178 0
-118 -189 0
-118 -190 0
189 -189 0
190 -190 0
-19 -129 0
-19 -130 0
129 -129 0
130 -130 0
-39 -141 0
-39 -142 0
141 -141 0
142 -142 0
-59 -153 0
-59 -154 0
153 -153 0
154 -154 0
-79 -165 0
-79 -166 0
165 -165 0
166 -166 0
-99 -177 0
-99 -178 0
177 -177 0
178 -178 0
-119 -189 0
-119 -190 0
189 -189 0
190 -190 0
-20 -129 0
-20 -130 0
129 -129 0
130 -130 0
-40 -141 0
-40 -142 0
141 -141 0
142 -142 0
-60 -153 0
-60 -154 0
153 -153 0
154 -154 0
-80 -165 0
-80 -166 0
165 -165 0
166 -166 0
-100 -177 0
-100 -178 0
177 -177 0
178 -178 0
-120 -189 0
-120 -190 0
189 -189 0
190 -190 0
-321 129 0
321 -129 0
-322 130 0
321 -130 0
-321 -129 0
-322 -130 0
-333 129 321 0
333 -129 0
333 -321 0
-334 130 322 0
334 -130 0
334 -322 0
-333 -141 0
-334 -142 0
-345 141 333 0
345 -141 0
345 -333 0
-346 142 334 0
346 -142 0
346 -334 0
-345 -153 0
-346 -154 0
-357 153 345 0
357 -153 0
357 -345 0
-358 154 346 0
358 -154 0
358 -346 0
-357 -165 0
-358 -166 0
-369 165 357 0
369 -165 0
369 -357 0
-370 166 358 0
370 -166 0
370 -358 0
-369 -177 0
-370 -178 0
-381 177 369 0
381 -177 0
381 -369 0
-382 178 370 0
382 -178 0
382 -370 0
-381 -189 0
-382 -190 0
381 0
382 0
1 -131 0
1 -132 0
131 -131 0
132 -132 0
21 -143 0
21 -144 0
143 -143 0
144 -144 0
41 -155 0
41 -156 0
155 -155 0
156 -156 0
61 -167 0
61 -168 0
167 -167 0
168 -168 0
81 -179 0
81 -180 0
179 -179 0
180 -180 0
101 -191 0
101 -192 0
191 -191 0
192 -192 0
2 -208 -131 0
-2 208 -131 0
2 208 -132 0
-2 -208 -132 0
22 -208 -143 0
-22 208 -143 0
22 208 -144 0
-22 -208 -144 0
42 -208 -155 0
-42 208 -155 0
42 208 -156 0
-42 -208 -156 0
62 -208 -167 0
-62 208 -167 0
62 208 -168 0
-62 -208 -168 0
82 -208 -179 0
-82 208 -179 0
82 208 -180 0
-82 -208 -180 0
102 -208 -191 0
-102 208 -191 0
102 208 -192 0
-102 -208 -192 0
3 -209 -131 0
-3 209 -131 0
3 209 -132 0
-3 -209 -132 0
23 -209 -143 0
-23 209 -143 0
23 209 -144 0
-23 -209 -144 0
43 -209 -155 0
-43 209 -155 0
43 209 -156 0
-43 -209 -156 0
63 -209 -167 0
-63 209 -167 0
63 209 -168 0
-63 -209 -168 0
83 -209 -179 0
-83 209 -179 0
83 209 -180 0
-83 -209 -180 0
103 -209 -191 0
-103 209 -191 0
103 209 -192 0
-103 -209 -192 0
4 -210 -131 0
-4 210 -131 0
4 210 -132 0
-4 -210 -132 0
24 -210 -143 0
-24 210 -143 0
24 210 -144 0
-24 -210 -144 0
44 -210 -155 0
-44 210 -155 0
44 210 -156 0
-44 -210 -156 0
64 -210 -167 0
-64 210 -167 0
64 210 -168 0
-64 -210 -168 0
84 -210 -179 0
-84 210 -179 0
84 210 -180 0
-84 -210 -180 0
104 -210 -191 0
-104 210 -191 0
104 210 -192 0
-104 -210 -192 0
5 -211 -131 0
-5 211 -131 0
5 211 -132 0
-5 -211 -132 0
25 -211 -143 0
-25 211 -143 0
25 211 -144 0
-25 -211 -144 0
45 -211 -155 0
-45 211 -155 0
45 211 -156 0
-45 -211 -156 0
65 -211 -167 0
-65 211 -167 0
65 211 -168 0
-65 -211 -168 0
85 -211 -179 0
-85 211 -179 0
85 211 -180 0
-85 -211 -180 0
105 -211 -191 0
-105 211 -191 0
105 211 -192 0
-105 -211 -192 0
6 -131 0
6 -132 0
131 -131 0
132 -132 0
26 -143 0
26 -144 0
143 -143 0
144 -144 0
46 -155 0
46 -156 0
155 -155 0
156 -156 0
66 -167 0
66 -168 0
167 -167 0
168 -168 0
86 -179 0
86 -180 0
179 -179 0
180 -180 0
106 -191 0
106 -192 0
191 -191 0
192 -192 0
7 -131 0
7 -132 0
131 -131 0
132 -132 0
27 -143 0
27 -144 0
143 -143 0
144 -144 0
47 -155 0
47 -156 0
155 -155 0
156 -156 0
67 -167 0
67 -168 0
167 -167 0
168 -168 0
87 -179 0
87 -180 0
179 -179 0
180 -180 0
107 -191 0
107 -192 0
191 -191 0
192 -192 0
8 -212 -131 0
-8 212 -131 0
8 212 -132 0
-8 -212 -132 0
28 -212 -143 0
-28 212 -143 0
28 212 -144 0
-28 -212 -144 0
48 -212 -155 0
-48 212 -155 0
48 212 -156 0
-48 -212 -156 0
68 -212 -167 0
-68 212 -167 0
68 212 -168 0
-68 -212 -168 0
88 -212 -179 0
-88 212 -179 0
88 212 -180 0
-88 -212 -180 0
108 -212 -191 0
-108 212 -191 0
108 212 -192 0
-108 -212 -192 0
9 -213 -131 0
-9 213 -131 0
9 213 -132 0
-9 -213 -132 0
29 -213 -143 0
-29 213 -143 0
29 213 -144 0
-29 -213 -144 0
49 -213 -155 0
-49 213 -155 0
49 213 -156 0
-49 -213 -156 0
69 -213 -167 0
-69 213 -167 0
69 213 -168 0
-69 -213 -168 0
89 -213 -179 0
-89 213 -179 0
89 213 -180 0
-89 -213 -180 0
109 -213 -191 0
-109 213 -191 0
109 213 -192 0
-109 -213 -192 0
10 -131 0
10 -132 0
131 -131 0
132 -132 0
30 -143 0
30 -144 0
143 -143 0
144 -144 0
50 -155 0
50 -156 0
155 -155 0
156 -156 0
70 -167 0
70 -168 0
167 -167 0
168 -168 0
90 -179 0
90 -180 0
179 -179 0
180 -180 0
110 -191 0
110 -192 0
191 -191 0
192 -192 0
11 -214 -131 0
-11 214 -131 0
11 214 -132 0
-11 -214 -132 0
31 -214 -143 0
-31 214 -143 0
31 214 -144 0
-31 -214 -144 0
51 -214 -155 0
-51 214 -155 0
51 214 -156 0
-51 -214 -156 0
71 -214 -167 0
-71 214 -167 0
71 214 -168 0
-71 -214 -168 0
91 -214 -179 0
-91 214 -179 0
91 214 -180 0
-91 -214 -180 0
111 -214 -191 0
-111 214 -191 0
111 214 -192 0
-111 -214 -192 0
12 -131 0
12 -132 0
131 -131 0
132 -132 0
32 -143 0
32 -144 0
143 -143 0
144 -144 0
52 -155 0
52 -156 0
155 -155 0
156 -156 0
72 -167 0
72 -168 0
167 -167 0
168 -168 0
92 -179 0
92 -180 0
179 -179 0
180 -180 0
112 -191 0
112 -192 0
191 -191 0
192 -192 0
-13 -131 0
-13 -132 0
131 -131 0
132 -132 0
-33 -143 0
-33 -144 0
143 -143 0
144 -144 0
-53 -155 0
-53 -156 0
155 -155 0
156 -156 0
-73 -167 0
-73 -168 0
167 -167 0
168 -168 0
-93 -179 0
-93 -180 0
179 -179 0
180 -180 0
-113 -191 0
-113 -192 0
191 -191 0
192 -192 0
14 -215 -131 0
-14 215 -131 0
14 215 -132 0
-14 -215 -132 0
34 -215 -143 0
-34 215 -143 0
34 215 -144 0
-34 -215 -144 0
54 -215 -155 0
-54 215 -155 0
54 215 -156 0
-54 -215 -156 0
74 -215 -167 0
-74 215 -167 0
74 215 -168 0
-74 -215 -168 0
94 -215 -179 0
-94 215 -179 0
94 215 -180 0
-94 -215 -180 0
114 -215 -191 0
-114 215 -191 0
114 215 -192 0
-114 -215 -192 0
15 -216 -131 0
-15 216 -131 0
15 216 -132 0
-15 -216 -132 0
35 -216 -143 0
-35 216 -143 0
35 216 -144 0
-35 -216 -144 0
55 -216 -155 0
-55 216 -155 0
55 216 -156 0
-55 -216 -156 0
75 -216 -167 0
-75 216 -167 0
75 216 -168 0
-75 -216 -168 0
95 -216 -179 0
-95 216 -179 0
95 216 -180 0
-95 -216 -180 0
115 -216 -191 0
-115 216 -191 0
115 216 -192 0
-115 -216 -192 0
16 -217 -131 0
-16 217 -131 0
16 217 -132 0
-16 -217 -132 0
36 -217 -143 0
-36 217 -143 0
36 217 -144 0
-36 -217 -144 0
56 -217 -155 0
-56 217 -155 0
56 217 -156 0
-56 -217 -156 0
76 -217 -167 0
-76 217 -167 0
76 217 -168 0
-76 -217 -168 0
96 -217 -179 0
-96 217 -179 0
96 217 -180 0
-96 -217 -180 0
116 -217 -191 0
-116 217 -191 0
116 217 -192 0
-116 -217 -192 0
17 -218 -131 0
-17 218 -131 0
17 218 -132 0
-17 -218 -132 0
37 -218 -143 0
-37 218 -143 0
37 218 -144 0
-37 -218 -144 0
57 -218 -155 0
-57 218 -155 0
57 218 -156 0
-57 -218 -156 0
77 -218 -167 0
-77 218 -167 0
77 218 -168 0
-77 -218 -168 0
97 -218 -179 0
-97 218 -179 0
97 218 -180 0
-97 -218 -180 0
117 -218 -191 0
-117 218 -191 0
117 218 -192 0
-117 -218 -192 0
18 -219 -131 0
-18 219 -131 0
18 219 -132 0
-18 -219 -132 0
38 -219 -143 0
-38 219 -143 0
38 219 -144 0
-38 -219 -144 0
58 -219 -155 0
-58 219 -155 0
58 219 -156 0
-58 -219 -156 0
78 -219 -167 0
-78 219 -167 0
78 219 -168 0
-78 -219 -168 0
98 -219 -179 0
-98 219 -179 0
98 219 -180 0
-98 -219 -180 0
118 -219 -191 0
-118 219 -191 0
118 219 -192 0
-118 -219 -192 0
19 -220 -131 0
-19 220 -131 0
19 220 -132 0
-19 -220 -132 0
39 -220 -143 0
-39 220 -143 0
39 220 -144 0
-39 -220 -144 0
59 -220 -155 0
-59 220 -155 0
59 220 -156 0
-59 -220 -156 0
79 -220 -167 0
-79 220 -167 0
79 220 -168 0
-79 -220 -168 0
99 -220 -179 0
-99 220 -179 0
99 220 -180 0
-99 -220 -180 0
119 -220 -191 0
-119 220 -191 0
119 220 -192 0
-119 -220 -192 0
20 -221 -131 0
-20 221 -131 0
20 221 -132 0
-20 -221 -132 0
40 -221 -143 0
-40 221 -143 0
40 221 -144 0
-40 -221 -144 0
60 -221 -155 0
-60 221 -155 0
60 221 -156 0
-60 -221 -156 0
80 -221 -167 0
-80 221 -167 0
80 221 -168 0
-80 -221 -168 0
100 -221 -179 0
-100 221 -179 0
100 221 -180 0
-100 -221 -180 0
120 -221 -191 0
-120 221 -191 0
120 221 -192 0
-120 -221 -192 0
-323 131 0
323 -131 0
-324 132 0
323 -132 0
-323 -131 0
-324 -132 0
-335 131 323 0
335 -131 0
335 -323 0
-336 132 324 0
336 -132 0
336 -324 0
-335 -143 0
-336 -144 0
-347 143 335 0
347 -143 0
347 -335 0
-348 144 336 0
348 -144 0
348 -336 0
-347 -155 0
-348 -156 0
-359 155 347 0
359 -155 0
359 -347 0
-360 156 348 0
360 -156 0
360 -348 0
-359 -167 0
-360 -168 0
-371 167 359 0
371 -167 0
371 -359 0
-372 168 360 0
372 -168 0
372 -360 0
-371 -179 0
-372 -180 0
-383 179 371 0
383 -179 0
383 -371 0
-384 180 372 0
384 -180 0
384 -372 0
-383 -191 0
-384 -192 0
383 0
384 0
